CapLotSizing_PM/src/Instancias/NCLSLT/6i6p4m/NBB08.OUT
 CG ITER, OVMR, OVMRUB =           1   10934.6835938    6292.1987305
 CG ITER, OVMR, OVMRUB =           2   10934.6835938    6292.1987305
 CG ITER, OVMR, OVMRUB =           3   10934.6835938    6292.1987305
 CG ITER, OVMR, OVMRUB =           4   10934.6835938    6292.1987305
 CG ITER, OVMR, OVMRUB =           5   10934.6835938    6292.1987305
 CG ITER, OVMR, OVMRUB =           6   10934.6835938    6292.1987305
 CG ITER, OVMR, OVMRUB =           7   10934.6835938    6292.1987305
 CG ITER, OVMR, OVMRUB =           8   10934.6835938    6292.1987305
 CG ITER, OVMR, OVMRUB =           9   10934.6835938    6292.1987305
 CG ITER, OVMR, OVMRUB =          10   10934.6835938    6292.1987305
OVLB =   10934.6835938 OVLUB =    6292.1987305 TIME =       0.1600000
